InboundTrucks  = 10;
OutboundTrucks = 10;
InboundDoors   = 8;
OutboundDoors  = 8;
ReleaseTime    = [4,18,27,25,24,2,8,3,15,24];
UnloadTime     = [35,11,34,34,16,12,27,22,35,15];
LoadTime       = [18,16,17,11,6,5,20,11,9,5];
TransferTime   = [| 10,0,14,15,5,7,11,7,15,0 | 7,9,5,8,12,8,0,7,0,12 | 10,0,10,15,10,11,13,6,5,13 | 0,6,0,0,15,0,8,7,0,15 | 8,5,0,6,13,10,5,10,5,10 | 8,14,7,0,6,8,8,11,11,6 | 0,0,9,0,0,0,6,6,15,14 | 0,0,12,0,0,0,12,9,13,0 | 13,10,13,5,0,0,15,0,0,8 | 11,12,10,14,0,10,6,11,14,6 |];
